NAME : lr106.1252612.tour
COMMENT : Cost = 0_1252612
COMMENT : Found by LKH [Keld Helsgaun] Fri Sep 15 17:42:01 2017
TYPE : TOUR
DIMENSION : 116
TOUR_SECTION
1
63
89
31
21
67
33
71
2
107
60
38
15
45
39
87
44
101
99
94
111
64
65
12
91
11
32
110
28
104
70
77
41
54
106
66
72
52
10
36
35
4
78
109
22
73
40
24
68
56
55
5
26
102
115
49
48
37
20
50
47
103
83
8
53
113
95
93
43
16
58
88
98
105
96
14
112
51
34
30
80
82
79
69
25
81
13
116
29
27
74
42
23
76
57
75
3
59
114
84
46
19
9
85
18
6
61
108
97
86
92
17
62
100
7
90
-1
EOF
